proyfinal/src/viki/013/andrea/andrea-localstore/experimentInOfficeAgust.take6/worker_1/c9c2b7e7-0572-4049-a7c9-582563488bf7.als.cnf.out
Reading from standard input... Use '--help' for help.
============================[ Problem Statistics ]=============================
|                                                                             |
|  Number of variables:         87638                                         |
|  Number of clauses:          161767                                         |
|  Parse time:                   0.03 s                                       |
|                                                                             |
============================[ Search Statistics ]==============================
| Conflicts |          ORIGINAL         |          LEARNT          | Progress |
|           |    Vars  Clauses Literals |    Limit  Clauses Lit/Cl |          |
===============================================================================
|       100 |   63292   108445   270935 |    39763      100     55 | 27.780 % |
|       250 |   63292   108445   270935 |    43739      250     77 | 27.780 % |
|       475 |   63292   108445   270935 |    48113      475     61 | 27.780 % |
|       812 |   63292   108445   270935 |    52924      812     54 | 27.780 % |
|      1318 |   54443    82319   206694 |    58217     1300     63 | 37.877 % |
|      2077 |   53321    78735   197404 |    64038     1909     57 | 39.158 % |
|      3216 |   53203    78013   195690 |    70442     3020     58 | 39.292 % |
|      4924 |   53203    78013   195690 |    77487     4728     54 | 39.292 % |
|      7486 |   53147    77915   195469 |    85235     7284     51 | 39.356 % |
|     11330 |   52749    76090   191074 |    93759    11037     51 | 39.810 % |
|     17096 |   52635    75632   189994 |   103135    16568     56 | 39.940 % |
===============================================================================
restarts              : 63
conflicts             : 17807          (9134 /sec)
decisions             : 56474          (0.00 % random) (28969 /sec)
propagations          : 20787291       (10663036 /sec)
conflict literals     : 990492         (46.35 % deleted)
Memory used           : 35.59 MB
CPU time              : 1.94947 s

UNSATISFIABLE
